p tw 142 158
1 2
2 55
3 14
4 5
5 6
6 7
7 8
8 9
9 10
10 11
11 12
12 13
12 22
13 15
14 25
15 16
16 17
17 18
18 19
19 20
20 21
21 30
22 23
23 24
24 26
25 36
26 27
27 28
28 29
29 30
30 31
31 32
32 33
33 34
34 35
35 37
36 47
37 38
38 39
39 40
40 41
41 42
42 43
43 44
44 45
45 46
46 48
47 50
48 49
50 51
51 52
52 53
53 54
53 83
54 56
55 66
56 57
57 58
58 59
58 80
59 60
60 61
61 62
61 75
62 63
63 64
63 68
64 65
65 67
65 71
66 77
67 51
68 69
69 70
70 51
71 72
72 73
73 74
74 51
75 76
76 78
77 88
78 79
79 51
80 81
81 82
82 51
83 84
84 85
85 86
86 87
86 93
87 89
88 99
88 47
89 90
89 101
90 91
91 92
91 95
92 98
93 94
94 48
95 96
96 97
97 101
98 100
99 110
100 101
101 102
102 103
102 111
103 104
104 105
105 106
106 107
107 108
108 109
108 111
109 48
110 121
111 112
112 113
112 118
113 114
114 115
115 116
116 117
117 118
118 119
119 120
120 122
120 128
121 132
122 123
122 126
123 124
124 125
125 126
126 127
127 48
128 129
129 130
129 30
130 131
131 133
132 3
133 134
134 135
135 136
136 137
137 138
138 139
139 140
139 4
140 141
141 142
142 4
